Reading model...
...model read.
creating competitive generators file...
...competitive generators recorded.
Loading data...
..data read.
Compiling instance...
...instance created.
Solving...

Welcome to IBM(R) ILOG(R) CPLEX(R) Interactive Optimizer 12.10.0.0
  with Simplex, Mixed Integer & Barrier Optimizers
5725-A06 5725-A29 5724-Y48 5724-Y49 5724-Y54 5724-Y55 5655-Y21
Copyright IBM Corp. 1988, 2019.  All Rights Reserved.

Type 'help' for a list of available commands.
Type 'help' followed by a command name for more
information on commands.

CPLEX> Logfile 'cplex.log' closed.
Logfile 'C:\Users\wenmi\Desktop\competitiveMPEC\logs\tmpzixkd9k1.cplex.log' open.
CPLEX> New value for parallel optimization mode: -1
CPLEX> New value for mixed integer optimality gap tolerance: 0.3
CPLEX> New value for deterministic time limit in ticks: 300000
CPLEX> Problem 'C:\Users\wenmi\Desktop\competitiveMPEC\logs\tmpbatev0hc.pyomo.lp' read.
Read time = 0.06 sec. (5.16 ticks)
CPLEX> Problem name         : C:\Users\wenmi\Desktop\competitiveMPEC\logs\tmpbatev0hc.pyomo.lp
Objective sense      : Minimize
Variables            :   43500  [Nneg: 1,  Box: 36443,  Free: 7056]
Objective nonzeros   :    2496
Linear constraints   :   47562  [Less: 26171,  Greater: 7968,  Equal: 13423]
  Nonzeros           :  157957
  RHS nonzeros       :   12709

Variables            : Min LB: -5000.000        Max UB: 500000.0       
Objective nonzeros   : Min   : 15.73158         Max   : 124.0997       
Linear constraints   :
  Nonzeros           : Min   : 0.6000000        Max   : 50820.00       
  RHS nonzeros       : Min   : 0.6000000        Max   : 28046.68       
CPLEX> Version identifier: 12.10.0.0 | 2019-11-26 | 843d4de2ae
CPXPARAM_Parallel                                -1
CPXPARAM_DetTimeLimit                            300000
CPXPARAM_MIP_Tolerances_MIPGap                   0.29999999999999999
Parallel mode: opportunistic, using up to 16 threads for concurrent optimization:
 * Starting dual Simplex on 1 thread...
 * Starting Barrier on 14 threads...
 * Starting primal Simplex on 1 thread...
Tried aggregator 1 time.
LP Presolve eliminated 37155 rows and 26649 columns.
Aggregator did 752 substitutions.
Reduced LP has 9655 rows, 16099 columns, and 51177 nonzeros.
Presolve time = 0.06 sec. (48.17 ticks)
Symmetry aggregator did 11231 additional substitutions.
Initializing dual steep norms . . .

Iteration log . . .
Iteration:     1   Dual objective     =             0.000000
Perturbation started.
Iteration:   101   Dual objective     =             0.000000
Iteration:   338   Dual objective     =            21.773129
Iteration:   570   Dual objective     =            25.682611
Iteration:   843   Dual objective     =            25.771272
Iteration:  1029   Dual objective     =        104718.698779
Iteration:  1318   Dual objective     =        140390.867170
Removing perturbation.

Dual crossover.
  Dual:  Fixing 4 variables.
        3 DMoves:  Infeasibility  7.46069873e-14  Objective  1.44173298e+05
        0 DMoves:  Infeasibility  6.99451795e-14  Objective  1.44173298e+05
  Dual:  Pushed 0, exchanged 4.
  Primal:  Fixing 6 variables.
        5 PMoves:  Infeasibility  3.65249847e-09  Objective  1.44173298e+05
        0 PMoves:  Infeasibility  3.65249847e-09  Objective  1.44173298e+05
  Primal:  Pushed 6, exchanged 0.

Dual simplex solved model.


Dual simplex - Optimal:  Objective =  1.4417329797e+05
Solution time =    0.16 sec.  Iterations = 1559 (0)
Deterministic time = 121.36 ticks  (777.96 ticks/sec)

CPLEX> Solution written to file 'C:\Users\wenmi\Desktop\competitiveMPEC\logs\tmpe7aha7mf.cplex.sol'.
CPLEX> Exporting results... 
